C101

VEHICLE
NUMBER     CAPACITY
  25         200

CUSTOMER
CUST NO.  XCOORD.   YCOORD.    DEMAND   READY TIME  DUE DATE   SERVICE   TIME
 
    0      4000         5000          0          0       123600          0   
    1      4500         6800         10        91200        96700         9000   
    2      4500         7000         30        82500        87000         9000   
    3      4200         6600         10         6500        14600         9000   
    4      4200        6800         10        72700        78200         9000   
    5      4200         6500         10         1500        6700         9000   